(set-logic ALL)
(declare-const n_VAR Int)
(assert (not (= n_VAR 0)))
(assert (not (= n_VAR 1)))
(assert (< 0 n_VAR))
(assert (< 1 n_VAR))
(assert (< 2 n_VAR))
(assert (< 3 n_VAR))
(assert (< 4 n_VAR))
(assert (< 5 n_VAR))
(assert (< 6 n_VAR))
(assert (< 7 n_VAR))
(assert (< 8 n_VAR))
(assert (< 9 n_VAR))
(assert (< 10 n_VAR))
(assert (< 11 n_VAR))
(assert (< 12 n_VAR))
(assert (< 13 n_VAR))
(assert (< 14 n_VAR))
(assert (< 15 n_VAR))
(assert (< 16 n_VAR))
(assert (< 17 n_VAR))
(assert (< 18 n_VAR))
(assert (< 19 n_VAR))
(assert (< 20 n_VAR))
(assert (< 21 n_VAR))
(assert (< 22 n_VAR))
(assert (< 23 n_VAR))
(assert (< 24 n_VAR))
(assert (< 25 n_VAR))
(assert (< 26 n_VAR))
(assert (< 27 n_VAR))
(assert (< 28 n_VAR))
(assert (< 29 n_VAR))
(assert (< 30 n_VAR))
(assert (< 31 n_VAR))
(assert (< 32 n_VAR))
(assert (< 33 n_VAR))
(assert (< 34 n_VAR))
(assert (< 35 n_VAR))
(assert (< 36 n_VAR))
(assert (< 37 n_VAR))
(assert (< 38 n_VAR))
(assert (< 39 n_VAR))
(assert (< 40 n_VAR))
(assert (< 41 n_VAR))
(assert (< 42 n_VAR))
(assert (< 43 n_VAR))
(assert (< 44 n_VAR))
(assert (< 45 n_VAR))
(assert (< 46 n_VAR))
(assert (< 47 n_VAR))
(assert (< 48 n_VAR))
(assert (< 49 n_VAR))
(assert (< 50 n_VAR))
(assert (< 51 n_VAR))
(assert (< 52 n_VAR))
(assert (< 53 n_VAR))
(assert (< 54 n_VAR))
(assert (< 55 n_VAR))
(assert (< 56 n_VAR))
(assert (< 57 n_VAR))
(assert (< 58 n_VAR))
(assert (< 59 n_VAR))
(assert (< 60 n_VAR))
(assert (< 61 n_VAR))
(assert (< 62 n_VAR))
(assert (< 63 n_VAR))
(assert (< 64 n_VAR))
(assert (< 65 n_VAR))
(assert (< 66 n_VAR))
(assert (< 67 n_VAR))
(assert (< 68 n_VAR))
(assert (< 69 n_VAR))
(assert (< 70 n_VAR))
(assert (< 71 n_VAR))
(assert (< 72 n_VAR))
(assert (< 73 n_VAR))
(assert (< 74 n_VAR))
(assert (< 75 n_VAR))
(assert (< 76 n_VAR))
(assert (< 77 n_VAR))
(assert (< 78 n_VAR))
(assert (< 79 n_VAR))
(assert (< 80 n_VAR))
(assert (< 81 n_VAR))
(assert (< 82 n_VAR))
(assert (< 83 n_VAR))
(assert (< 84 n_VAR))
(assert (< 85 n_VAR))
(assert (< 86 n_VAR))
(assert (< 87 n_VAR))
(assert (< 88 n_VAR))
(assert (< 89 n_VAR))
(assert (< 90 n_VAR))
(assert (< 91 n_VAR))
(assert (< 92 n_VAR))
(assert (< 93 n_VAR))
(assert (< 94 n_VAR))
(assert (< 95 n_VAR))
(assert (< 96 n_VAR))
(assert (< 97 n_VAR))
(assert (< 98 n_VAR))
(assert (< 99 n_VAR))
(assert (< 100 n_VAR))
(assert (< 101 n_VAR))
(assert (< 102 n_VAR))
(assert (< 103 n_VAR))
(assert (< 104 n_VAR))
(assert (< 105 n_VAR))
(assert (< 106 n_VAR))
(assert (< 107 n_VAR))
(assert (< 108 n_VAR))
(assert (< 109 n_VAR))
(assert (< 110 n_VAR))
(assert (< 111 n_VAR))
(assert (< 112 n_VAR))
(assert (< 113 n_VAR))
(assert (< 114 n_VAR))
(assert (< 115 n_VAR))
(assert (< 116 n_VAR))
(assert (< 117 n_VAR))
(assert (< 118 n_VAR))
(assert (< 119 n_VAR))
(assert (< 120 n_VAR))
(assert (< 121 n_VAR))
(assert (< 122 n_VAR))
(assert (< 123 n_VAR))
(assert (< 124 n_VAR))
(assert (< 125 n_VAR))
(assert (< 126 n_VAR))
(assert (< 127 n_VAR))
(assert (< 128 n_VAR))
(assert (< 129 n_VAR))
(assert (< 130 n_VAR))
(assert (< 131 n_VAR))
(assert (< 132 n_VAR))
(assert (< 133 n_VAR))
(assert (< 134 n_VAR))
(assert (< 135 n_VAR))
(assert (< 136 n_VAR))
(assert (< 137 n_VAR))
(assert (< 138 n_VAR))
(assert (< 139 n_VAR))
(assert (< 140 n_VAR))
(assert (< 141 n_VAR))
(assert (< 142 n_VAR))
(assert (< 143 n_VAR))
(assert (< 144 n_VAR))
(assert (< 145 n_VAR))
(assert (< 146 n_VAR))
(assert (< 147 n_VAR))
(assert (< 148 n_VAR))
(assert (< 149 n_VAR))
(assert (< 150 n_VAR))
(assert (< 151 n_VAR))
(assert (< 152 n_VAR))
(assert (< 153 n_VAR))
(assert (< 154 n_VAR))
(assert (< 155 n_VAR))
(assert (< 156 n_VAR))
(assert (< 157 n_VAR))
(assert (< 158 n_VAR))
(assert (< 159 n_VAR))
(assert (< 160 n_VAR))
(assert (< 161 n_VAR))
(assert (< 162 n_VAR))
(assert (< 163 n_VAR))
(assert (< 164 n_VAR))
(assert (< 165 n_VAR))
(assert (< 166 n_VAR))
(assert (< 167 n_VAR))
(assert (< 168 n_VAR))
(assert (< 169 n_VAR))
(assert (< 170 n_VAR))
(assert (< 171 n_VAR))
(assert (< 172 n_VAR))
(assert (< 173 n_VAR))
(assert (< 174 n_VAR))
(assert (< 175 n_VAR))
(assert (< 176 n_VAR))
(assert (< 177 n_VAR))
(assert (< 178 n_VAR))
(assert (< 179 n_VAR))
(assert (< 180 n_VAR))
(assert (< 181 n_VAR))
(assert (< 182 n_VAR))
(assert (< 183 n_VAR))
(assert (< 184 n_VAR))
(assert (< 185 n_VAR))
(assert (< 186 n_VAR))
(assert (< 187 n_VAR))
(assert (< 188 n_VAR))
(assert (< 189 n_VAR))
(assert (< 190 n_VAR))
(assert (< 191 n_VAR))
(assert (< 192 n_VAR))
(assert (< 193 n_VAR))
(assert (< 194 n_VAR))
(assert (< 195 n_VAR))
(assert (< 196 n_VAR))
(assert (< 197 n_VAR))
(assert (< 198 n_VAR))
(assert (< 199 n_VAR))
(assert (< 200 n_VAR))
(assert (< 201 n_VAR))
(assert (< 202 n_VAR))
(assert (< 203 n_VAR))
(assert (< 204 n_VAR))
(assert (< 205 n_VAR))
(assert (< 206 n_VAR))
(assert (< 207 n_VAR))
(assert (< 208 n_VAR))
(assert (< 209 n_VAR))
(assert (< 210 n_VAR))
(assert (< 211 n_VAR))
(assert (< 212 n_VAR))
(assert (< 213 n_VAR))
(assert (< 214 n_VAR))
(assert (< 215 n_VAR))
(assert (< 216 n_VAR))
(assert (< 217 n_VAR))
(assert (< 218 n_VAR))
(assert (< 219 n_VAR))
(assert (< 220 n_VAR))
(assert (< 221 n_VAR))
(assert (< 222 n_VAR))
(assert (< 223 n_VAR))
(assert (< 224 n_VAR))
(assert (< 225 n_VAR))
(assert (< 226 n_VAR))
(assert (< 227 n_VAR))
(assert (< 228 n_VAR))
(assert (< 229 n_VAR))
(assert (< 230 n_VAR))
(assert (< 231 n_VAR))
(assert (< 232 n_VAR))
(assert (< 233 n_VAR))
(assert (< 234 n_VAR))
(assert (< 235 n_VAR))
(assert (< 236 n_VAR))
(assert (< 237 n_VAR))
(assert (< 238 n_VAR))
(assert (< 239 n_VAR))
(assert (< 240 n_VAR))
(assert (< 241 n_VAR))
(assert (< 242 n_VAR))
(assert (< 243 n_VAR))
(assert (< 244 n_VAR))
(assert (< 245 n_VAR))
(assert (< 246 n_VAR))
(assert (< 247 n_VAR))
(assert (< 248 n_VAR))
(assert (< 249 n_VAR))
(assert (< 250 n_VAR))
(assert (< 251 n_VAR))
(assert (< 252 n_VAR))
(assert (< 253 n_VAR))
(assert (< 254 n_VAR))
(assert (< 255 n_VAR))
(assert (< 256 n_VAR))
(assert (< 257 n_VAR))
(assert (< 258 n_VAR))
(assert (< 259 n_VAR))
(assert (< 260 n_VAR))
(assert (< 261 n_VAR))
(assert (< 262 n_VAR))
(assert (< 263 n_VAR))
(assert (< 264 n_VAR))
(assert (< 265 n_VAR))
(assert (< 266 n_VAR))
(assert (< 267 n_VAR))
(assert (< 268 n_VAR))
(assert (< 269 n_VAR))
(assert (< 270 n_VAR))
(assert (< 271 n_VAR))
(assert (< 272 n_VAR))
(assert (< 273 n_VAR))
(assert (< 274 n_VAR))
(assert (< 275 n_VAR))
(assert (< 276 n_VAR))
(assert (< 277 n_VAR))
(assert (< 278 n_VAR))
(assert (< 279 n_VAR))
(assert (< 280 n_VAR))
(assert (< 281 n_VAR))
(assert (< 282 n_VAR))
(assert (< 283 n_VAR))
(assert (< 284 n_VAR))
(assert (< 285 n_VAR))
(assert (< 286 n_VAR))
(assert (< 287 n_VAR))
(assert (< 288 n_VAR))
(assert (< 289 n_VAR))
(assert (< 290 n_VAR))
(assert (< 291 n_VAR))
(assert (< 292 n_VAR))
(assert (< 293 n_VAR))
(assert (< 294 n_VAR))
(assert (< 295 n_VAR))
(assert (< 296 n_VAR))
(assert (< 297 n_VAR))
(assert (< 298 n_VAR))
(assert (< 299 n_VAR))
(assert (< 300 n_VAR))
(assert (< 301 n_VAR))
(assert (< 302 n_VAR))
(assert (< 303 n_VAR))
(assert (< 304 n_VAR))
(assert (< 305 n_VAR))
(assert (< 306 n_VAR))
(assert (< 307 n_VAR))
(assert (< 308 n_VAR))
(assert (< 309 n_VAR))
(assert (< 310 n_VAR))
(assert (< 311 n_VAR))
(assert (< 312 n_VAR))
(assert (< 313 n_VAR))
(assert (< 314 n_VAR))
(assert (< 315 n_VAR))
(assert (< 316 n_VAR))
(assert (< 317 n_VAR))
(assert (< 318 n_VAR))
(assert (< 319 n_VAR))
(assert (< 320 n_VAR))
(assert (< 321 n_VAR))
(assert (< 322 n_VAR))
(assert (< 323 n_VAR))
(assert (< 324 n_VAR))
(assert (< 325 n_VAR))
(assert (< 326 n_VAR))
(assert (< 327 n_VAR))
(assert (< 328 n_VAR))
(assert (< 329 n_VAR))
(assert (< 330 n_VAR))
(assert (< 331 n_VAR))
(assert (< 332 n_VAR))
(assert (< 333 n_VAR))
(assert (< 334 n_VAR))
(assert (< 335 n_VAR))
(assert (< 336 n_VAR))
(assert (< 337 n_VAR))
(assert (< 338 n_VAR))
(assert (< 339 n_VAR))
(assert (< 340 n_VAR))
(assert (< 341 n_VAR))
(assert (< 342 n_VAR))
(assert (< 343 n_VAR))
(assert (< 344 n_VAR))
(assert (< 345 n_VAR))
(assert (< 346 n_VAR))
(assert (< 347 n_VAR))
(assert (< 348 n_VAR))
(assert (< 349 n_VAR))
(assert (< 350 n_VAR))
(assert (< 351 n_VAR))
(assert (< 352 n_VAR))
(assert (< 353 n_VAR))
(assert (< 354 n_VAR))
(assert (< 355 n_VAR))
(assert (< 356 n_VAR))
(assert (< 357 n_VAR))
(assert (< 358 n_VAR))
(assert (< 359 n_VAR))
(assert (< 360 n_VAR))
(assert (< 361 n_VAR))
(assert (< 362 n_VAR))
(assert (< 363 n_VAR))
(assert (< 364 n_VAR))
(assert (< 365 n_VAR))
(assert (< 366 n_VAR))
(assert (< 367 n_VAR))
(assert (< 368 n_VAR))
(assert (< 369 n_VAR))
(assert (< 370 n_VAR))
(assert (< 371 n_VAR))
(assert (< 372 n_VAR))
(assert (< 373 n_VAR))
(assert (< 374 n_VAR))
(assert (< 375 n_VAR))
(assert (< 376 n_VAR))
(assert (< 377 n_VAR))
(assert (< 378 n_VAR))
(assert (< 379 n_VAR))
(assert (< 380 n_VAR))
(assert (< 381 n_VAR))
(assert (< 382 n_VAR))
(assert (< 383 n_VAR))
(assert (< 384 n_VAR))
(assert (< 385 n_VAR))
(assert (< 386 n_VAR))
(assert (< 387 n_VAR))
(assert (< 388 n_VAR))
(assert (< 389 n_VAR))
(assert (< 390 n_VAR))
(assert (< 391 n_VAR))
(assert (< 392 n_VAR))
(assert (< 393 n_VAR))
(assert (< 394 n_VAR))
(assert (< 395 n_VAR))
(assert (< 396 n_VAR))
(assert (< 397 n_VAR))
(assert (< 398 n_VAR))
(assert (< 399 n_VAR))
(assert (< 400 n_VAR))
(assert (< 401 n_VAR))
(assert (< 402 n_VAR))
(assert (< 403 n_VAR))
(assert (< 404 n_VAR))
(assert (< 405 n_VAR))
(assert (< 406 n_VAR))
(assert (< 407 n_VAR))
(assert (< 408 n_VAR))
(assert (< 409 n_VAR))
(assert (< 410 n_VAR))
(assert (< 411 n_VAR))
(assert (< 412 n_VAR))
(assert (< 413 n_VAR))
(assert (< 414 n_VAR))
(assert (< 415 n_VAR))
(assert (< 416 n_VAR))
(assert (< 417 n_VAR))
(assert (< 418 n_VAR))
(assert (< 419 n_VAR))
(assert (< 420 n_VAR))
(assert (< 421 n_VAR))
(assert (< 422 n_VAR))
(assert (< 423 n_VAR))
(assert (< 424 n_VAR))
(assert (< 425 n_VAR))
(assert (< 426 n_VAR))
(assert (< 427 n_VAR))
(assert (< 428 n_VAR))
(assert (< 429 n_VAR))
(assert (< 430 n_VAR))
(assert (< 431 n_VAR))
(assert (< 432 n_VAR))
(assert (< 433 n_VAR))
(assert (< 434 n_VAR))
(assert (< 435 n_VAR))
(assert (< 436 n_VAR))
(assert (< 437 n_VAR))
(assert (< 438 n_VAR))
(assert (< 439 n_VAR))
(assert (< 440 n_VAR))
(assert (< 441 n_VAR))
(assert (< 442 n_VAR))
(assert (< 443 n_VAR))
(assert (< 444 n_VAR))
(assert (< 445 n_VAR))
(assert (< 446 n_VAR))
(assert (< 447 n_VAR))
(assert (< 448 n_VAR))
(assert (< 449 n_VAR))
(assert (< 450 n_VAR))
(assert (< 451 n_VAR))
(assert (< 452 n_VAR))
(assert (< 453 n_VAR))
(assert (< 454 n_VAR))
(assert (< 455 n_VAR))
(assert (< 456 n_VAR))
(assert (< 457 n_VAR))
(assert (< 458 n_VAR))
(assert (< 459 n_VAR))
(assert (< 460 n_VAR))
(assert (< 461 n_VAR))
(assert (< 462 n_VAR))
(assert (< 463 n_VAR))
(assert (< 464 n_VAR))
(assert (< 465 n_VAR))
(assert (< 466 n_VAR))
(assert (< 467 n_VAR))
(assert (< 468 n_VAR))
(assert (< 469 n_VAR))
(assert (< 470 n_VAR))
(assert (< 471 n_VAR))
(assert (< 472 n_VAR))
(assert (< 473 n_VAR))
(assert (< 474 n_VAR))
(assert (< 475 n_VAR))
(assert (< 476 n_VAR))
(assert (< 477 n_VAR))
(assert (< 478 n_VAR))
(assert (< 479 n_VAR))
(assert (< 480 n_VAR))
(assert (< 481 n_VAR))
(assert (< 482 n_VAR))
(assert (< 483 n_VAR))
(assert (< 484 n_VAR))
(assert (< 485 n_VAR))
(assert (< 486 n_VAR))
(assert (< 487 n_VAR))
(assert (< 488 n_VAR))
(assert (< 489 n_VAR))
(assert (< 490 n_VAR))
(assert (< 491 n_VAR))
(assert (< 492 n_VAR))
(assert (< 493 n_VAR))
(assert (< 494 n_VAR))
(assert (< 495 n_VAR))
(assert (< 496 n_VAR))
(assert (< 497 n_VAR))
(assert (< 498 n_VAR))
(assert (< 499 n_VAR))
(assert (< 500 n_VAR))
(assert (< 501 n_VAR))
(assert (< 502 n_VAR))
(assert (< 503 n_VAR))
(assert (< 504 n_VAR))
(assert (< 505 n_VAR))
(assert (< 506 n_VAR))
(assert (< 507 n_VAR))
(assert (< 508 n_VAR))
(assert (< 509 n_VAR))
(assert (< 510 n_VAR))
(assert (< 511 n_VAR))
(assert (< 512 n_VAR))
(assert (< 513 n_VAR))
(assert (< 514 n_VAR))
(assert (< 515 n_VAR))
(assert (< 516 n_VAR))
(assert (< 517 n_VAR))
(assert (< 518 n_VAR))
(assert (< 519 n_VAR))
(assert (< 520 n_VAR))
(assert (< 521 n_VAR))
(assert (< 522 n_VAR))
(assert (< 523 n_VAR))
(assert (< 524 n_VAR))
(assert (< 525 n_VAR))
(assert (< 526 n_VAR))
(assert (< 527 n_VAR))
(assert (< 528 n_VAR))
(assert (< 529 n_VAR))
(assert (< 530 n_VAR))
(assert (< 531 n_VAR))
(assert (< 532 n_VAR))
(assert (< 533 n_VAR))
(assert (< 534 n_VAR))
(assert (< 535 n_VAR))
(assert (< 536 n_VAR))
(assert (< 537 n_VAR))
(assert (< 538 n_VAR))
(assert (< 539 n_VAR))
(assert (< 540 n_VAR))
(assert (< 541 n_VAR))
(assert (< 542 n_VAR))
(assert (< 543 n_VAR))
(assert (< 544 n_VAR))
(assert (< 545 n_VAR))
(assert (< 546 n_VAR))
(assert (< 547 n_VAR))
(assert (< 548 n_VAR))
(assert (< 549 n_VAR))
(assert (< 550 n_VAR))
(assert (< 551 n_VAR))
(assert (< 552 n_VAR))
(assert (< 553 n_VAR))
(assert (< 554 n_VAR))
(assert (< 555 n_VAR))
(assert (< 556 n_VAR))
(assert (< 557 n_VAR))
(assert (< 558 n_VAR))
(assert (< 559 n_VAR))
(assert (< 560 n_VAR))
(assert (< 561 n_VAR))
(assert (< 562 n_VAR))
(assert (< 563 n_VAR))
(assert (< 564 n_VAR))
(assert (< 565 n_VAR))
(assert (< 566 n_VAR))
(assert (< 567 n_VAR))
(assert (< 568 n_VAR))
(assert (< 569 n_VAR))
(assert (< 570 n_VAR))
(assert (< 571 n_VAR))
(assert (< 572 n_VAR))
(assert (< 573 n_VAR))
(assert (< 574 n_VAR))
(assert (< 575 n_VAR))
(assert (< 576 n_VAR))
(assert (< 577 n_VAR))
(assert (< 578 n_VAR))
(assert (< 579 n_VAR))
(assert (< 580 n_VAR))
(assert (< 581 n_VAR))
(assert (< 582 n_VAR))
(assert (< 583 n_VAR))
(assert (< 584 n_VAR))
(assert (< 585 n_VAR))
(assert (< 586 n_VAR))
(assert (< 587 n_VAR))
(assert (< 588 n_VAR))
(assert (< 589 n_VAR))
(assert (< 590 n_VAR))
(assert (< 591 n_VAR))
(assert (< 592 n_VAR))
(assert (< 593 n_VAR))
(assert (< 594 n_VAR))
(assert (< 595 n_VAR))
(assert (< 596 n_VAR))
(assert (< 597 n_VAR))
(assert (< 598 n_VAR))
(assert (< 599 n_VAR))
(assert (< 600 n_VAR))
(assert (< 601 n_VAR))
(assert (< 602 n_VAR))
(assert (< 603 n_VAR))
(assert (< 604 n_VAR))
(assert (< 605 n_VAR))
(assert (< 606 n_VAR))
(assert (< 607 n_VAR))
(assert (< 608 n_VAR))
(assert (< 609 n_VAR))
(assert (< 610 n_VAR))
(assert (< 611 n_VAR))
(assert (< 612 n_VAR))
(assert (< 613 n_VAR))
(assert (< 614 n_VAR))
(assert (< 615 n_VAR))
(assert (< 616 n_VAR))
(assert (< 617 n_VAR))
(assert (< 618 n_VAR))
(assert (< 619 n_VAR))
(assert (< 620 n_VAR))
(assert (< 621 n_VAR))
(assert (< 622 n_VAR))
(assert (< 623 n_VAR))
(assert (< 624 n_VAR))
(assert (< 625 n_VAR))
(assert (< 626 n_VAR))
(assert (< 627 n_VAR))
(assert (< 628 n_VAR))
(assert (< 629 n_VAR))
(assert (< 630 n_VAR))
(assert (< 631 n_VAR))
(assert (< 632 n_VAR))
(assert (< 633 n_VAR))
(assert (< 634 n_VAR))
(assert (< 635 n_VAR))
(assert (< 636 n_VAR))
(assert (< 637 n_VAR))
(assert (< 638 n_VAR))
(assert (< 639 n_VAR))
(assert (< 640 n_VAR))
(assert (< 641 n_VAR))
(assert (< 642 n_VAR))
(assert (< 643 n_VAR))
(assert (< 644 n_VAR))
(assert (< 645 n_VAR))
(assert (< 646 n_VAR))
(assert (< 647 n_VAR))
(assert (< 648 n_VAR))
(assert (< 649 n_VAR))
(assert (< 650 n_VAR))
(assert (< 651 n_VAR))
(assert (< 652 n_VAR))
(assert (< 653 n_VAR))
(assert (< 654 n_VAR))
(assert (< 655 n_VAR))
(assert (< 656 n_VAR))
(assert (< 657 n_VAR))
(assert (< 658 n_VAR))
(assert (< 659 n_VAR))
(assert (< 660 n_VAR))
(assert (< 661 n_VAR))
(assert (< 662 n_VAR))
(assert (< 663 n_VAR))
(assert (< 664 n_VAR))
(assert (< 665 n_VAR))
(assert (< 666 n_VAR))
(assert (< 667 n_VAR))
(assert (< 668 n_VAR))
(assert (< 669 n_VAR))
(assert (< 670 n_VAR))
(assert (< 671 n_VAR))
(assert (< 672 n_VAR))
(assert (< 673 n_VAR))
(assert (< 674 n_VAR))
(assert (< 675 n_VAR))
(assert (< 676 n_VAR))
(assert (< 677 n_VAR))
(assert (< 678 n_VAR))
(assert (< 679 n_VAR))
(assert (< 680 n_VAR))
(assert (< 681 n_VAR))
(assert (< 682 n_VAR))
(assert (< 683 n_VAR))
(assert (< 684 n_VAR))
(assert (< 685 n_VAR))
(assert (< 686 n_VAR))
(assert (< 687 n_VAR))
(assert (< 688 n_VAR))
(assert (< 689 n_VAR))
(assert (< 690 n_VAR))
(assert (< 691 n_VAR))
(assert (< 692 n_VAR))
(assert (< 693 n_VAR))
(assert (< 694 n_VAR))
(assert (< 695 n_VAR))
(assert (< 696 n_VAR))
(assert (< 697 n_VAR))
(assert (< 698 n_VAR))
(assert (< 699 n_VAR))
(assert (< 700 n_VAR))
(assert (< 701 n_VAR))
(assert (< 702 n_VAR))
(assert (< 703 n_VAR))
(assert (< 704 n_VAR))
(assert (< 705 n_VAR))
(assert (< 706 n_VAR))
(assert (< 707 n_VAR))
(assert (< 708 n_VAR))
(assert (< 709 n_VAR))
(assert (< 710 n_VAR))
(assert (< 711 n_VAR))
(assert (< 712 n_VAR))
(assert (< 713 n_VAR))
(assert (< 714 n_VAR))
(assert (< 715 n_VAR))
(assert (< 716 n_VAR))
(assert (< 717 n_VAR))
(assert (< 718 n_VAR))
(assert (< 719 n_VAR))
(assert (< 720 n_VAR))
(assert (< 721 n_VAR))
(assert (< 722 n_VAR))
(assert (< 723 n_VAR))
(assert (< 724 n_VAR))
(assert (< 725 n_VAR))
(assert (< 726 n_VAR))
(assert (< 727 n_VAR))
(assert (< 728 n_VAR))
(assert (< 729 n_VAR))
(assert (< 730 n_VAR))
(assert (< 731 n_VAR))
(assert (< 732 n_VAR))
(assert (< 733 n_VAR))
(assert (< 734 n_VAR))
(assert (< 735 n_VAR))
(assert (< 736 n_VAR))
(assert (< 737 n_VAR))
(assert (< 738 n_VAR))
(assert (< 739 n_VAR))
(assert (< 740 n_VAR))
(assert (< 741 n_VAR))
(assert (< 742 n_VAR))
(assert (< 743 n_VAR))
(assert (< 744 n_VAR))
(assert (< 745 n_VAR))
(assert (< 746 n_VAR))
(assert (< 747 n_VAR))
(check-sat)
(get-value (n_VAR))
